
Gurobi 9.5.2 (win64) logging started Thu May 18 14:29:10 2023

Set parameter LogFile to value "./ccga_results/2023-05-18 14-29-08-585/FMP_TimeStampConvert_gurobi_log.txt"
Set parameter TimeLimit to value 1799

Gurobi 9.5.2 (win64) logging started Thu May 18 14:29:10 2023

Set parameter LogFile to value "./ccga_results/2023-05-18 14-29-08-585/FMP_TimeStampConvert_gurobi_log.txt"
Set parameter TimeLimit to value 1799
Gurobi Optimizer version 9.5.2 build v9.5.2rc0 (win64)
Thread count: 10 physical cores, 20 logical processors, using up to 20 threads
Optimize a model with 2012 rows, 1791 columns and 10044 nonzeros
Model fingerprint: 0x94fa5210
Variable types: 1751 continuous, 40 integer (40 binary)
Coefficient statistics:
  Matrix range     [9e-01, 6e+06]
  Objective range  [1e+00, 1e+00]
  Bounds range     [0e+00, 0e+00]
  RHS range        [1e+00, 6e+06]
Presolve removed 239 rows and 156 columns
Presolve time: 0.01s
Presolved: 1773 rows, 1635 columns, 9232 nonzeros
Variable types: 1615 continuous, 20 integer (20 binary)
Found heuristic solution: objective 27.5000000

Root relaxation: objective 1.000000e+03, 1639 iterations, 0.02 seconds (0.05 work units)

    Nodes    |    Current Node    |     Objective Bounds      |     Work
 Expl Unexpl |  Obj  Depth IntInf | Incumbent    BestBd   Gap | It/Node Time

     0     0 1000.00000    0    4   27.50000 1000.00000  3536%     -    0s
     0     0 1000.00000    0    6   27.50000 1000.00000  3536%     -    0s
     0     0 1000.00000    0    5   27.50000 1000.00000  3536%     -    0s
     0     0 1000.00000    0    4   27.50000 1000.00000  3536%     -    0s
     0     0 1000.00000    0    5   27.50000 1000.00000  3536%     -    0s
     0     0 1000.00000    0    6   27.50000 1000.00000  3536%     -    0s
     0     0 1000.00000    0    6   27.50000 1000.00000  3536%     -    0s
     0     0 1000.00000    0    6   27.50000 1000.00000  3536%     -    0s
H    0     0                     121.5740741 1000.00000   723%     -    0s
     0     2 1000.00000    0    6  121.57407 1000.00000   723%     -    0s
*  189   178              20     122.6923077 1000.00000   715%  59.4    0s
H  445   256                     124.3269231 1000.00000   704%   136    1s
H  809   420                     124.7692308 1000.00000   701%   143    4s
   897   473  250.00000   18    2  124.76923 1000.00000   701%   143    6s
H  921   473                     124.7699567 1000.00000   701%   144    6s
  2055   960 infeasible   20       124.76996  500.00000   301%   156   10s
  4197  1614  130.13514   32    1  124.76996  250.00000   100%   142   15s
  5182  1376 infeasible   33       124.76996  250.00000   100%   142   22s
  8169   796  133.07692   33    1  124.76996  250.00000   100%   141   26s
  8987   906  236.84211   30    1  124.76996  250.00000   100%   141   32s
 10392  1076 infeasible   33       124.76996  250.00000   100%   141   35s
 11574  1271  131.08108   32    1  124.76996  250.00000   100%   143   41s
 13570  1500  133.91892   32    2  124.76996  250.00000   100%   144   45s
 15221  1732 infeasible   33       124.76996  250.00000   100%   143   50s
 19981  2288 infeasible   33       124.76996  250.00000   100%   143   55s
 22555  2691  133.91892   32    2  124.76996  250.00000   100%   143   62s
 23855  2916  127.11538   33    1  124.76996  250.00000   100%   143   66s
 27679  3144  200.00000   31    1  124.76996  250.00000   100%   143   70s
 31083  3440 infeasible   34       124.76996  250.00000   100%   142   78s
 32676  3613  250.00000   30    1  124.76996  250.00000   100%   142   81s
 34321  3856 infeasible   34       124.76996  250.00000   100%   142   85s
 38343  4237  127.11538   32    2  124.76996  250.00000   100%   142   93s
 40523  4513  200.00000   31    2  124.76996  250.00000   100%   142   98s
 43075  4832 infeasible   34       124.76996  250.00000   100%   141  103s
 45076  5304  155.00000   33    1  124.76996  250.00000   100%   141  108s
 47706  5910 infeasible   34       124.76996  250.00000   100%   140  115s
 51164  6127  236.84211   29    2  124.76996  250.00000   100%   139  121s
 54169  6357  127.11538   33    1  124.76996  250.00000   100%   139  127s
 56077  6552  155.00000   32    2  124.76996  250.00000   100%   138  134s
 57706  7136  250.00000   29    1  124.76996  250.00000   100%   138  141s
 62010  7668 infeasible   34       124.76996  250.00000   100%   138  149s
 66220  8218  155.00000   32    2  124.76996  250.00000   100%   137  156s
 70122  8593 infeasible   33       124.76996  250.00000   100%   137  162s
 73875  8958 infeasible   33       124.76996  250.00000   100%   137  168s
 77023  9279  127.11538   32    2  124.76996  250.00000   100%   137  175s
 80202  9621 infeasible   33       124.76996  250.00000   100%   137  182s
 83926  9860  155.00000   33    1  124.76996  250.00000   100%   137  189s
 86703 10301 infeasible   33       124.76996  250.00000   100%   137  195s
 90016 10877 infeasible   34       124.76996  250.00000   100%   137  202s
 93878 11230 infeasible   33       124.76996  250.00000   100%   137  209s
 96715 11503 infeasible   33       124.76996  250.00000   100%   137  216s
 100342 11825  200.00000   32    1  124.76996  250.00000   100%   138  221s
 103146 12171  129.03846   32    1  124.76996  250.00000   100%   138  227s
 106040 12512  133.50000   32    2  124.76996  250.00000   100%   138  234s
 109655 12799 infeasible   34       124.76996  250.00000   100%   139  240s
 112364 12971  133.07692   32    2  124.76996  250.00000   100%   139  246s
 115110 13387 infeasible   34       124.76996  250.00000   100%   139  252s
 118342 13830  250.00000   28    1  124.76996  250.00000   100%   139  258s
 122149 14280 infeasible   34       124.76996  250.00000   100%   139  265s
 125299 14585 infeasible   33       124.76996  250.00000   100%   139  272s
 128584 14858 infeasible   34       124.76996  250.00000   100%   139  279s
 131289 15313  130.13514   32    1  124.76996  250.00000   100%   139  286s
 134298 15683  129.10256   33    1  124.76996  250.00000   100%   139  293s
 136996 15864  200.00000   31    2  124.76996  250.00000   100%   139  300s
 139243 16179 infeasible   33       124.76996  250.00000   100%   139  308s
 142498 16522  250.00000   29    1  124.76996  250.00000   100%   139  315s
 144873 16956  155.00000   32    2  124.76996  250.00000   100%   139  325s
 148065 17376  200.00000   31    1  124.76996  250.00000   100%   139  332s
 151475 17733 infeasible   34       124.76996  250.00000   100%   139  339s
 154094 18062  200.00000   31    2  124.76996  250.00000   100%   139  346s
 156387 18356 infeasible   33       124.76996  250.00000   100%   139  354s
 158425 18843  129.72973   32    2  124.76996  250.00000   100%   138  364s
 161908 19179 infeasible   34       124.76996  250.00000   100%   138  374s
 165840 19674 infeasible   34       124.76996  250.00000   100%   138  382s
 169903 20128  133.50000   32    2  124.76996  250.00000   100%   138  391s
 173751 20675  155.00000   33    1  124.76996  250.00000   100%   138  401s
 177652 21075  129.03846   32    1  124.76996  250.00000   100%   138  409s
 180600 21448 infeasible   32       124.76996  250.00000   100%   138  416s
 182595 21727 infeasible   33       124.76996  250.00000   100%   138  423s
 185268 22021  129.03846   33    1  124.76996  250.00000   100%   138  432s
 189010 22469  155.00000   33    1  124.76996  250.00000   100%   138  443s
 193008 22874  155.00000   32    2  124.76996  250.00000   100%   138  452s
 196487 23007 infeasible   34       124.76996  250.00000   100%   138  461s
 197846 23458 infeasible   34       124.76996  250.00000   100%   138  471s
 201174 23914  127.69231   33    1  124.76996  250.00000   100%   137  481s
 204118 24279  155.00000   32    2  124.76996  250.00000   100%   137  491s
 207877 24617 infeasible   34       124.76996  250.00000   100%   137  502s
 210911 25083 infeasible   34       124.76996  250.00000   100%   137  514s
 215479 25248  130.13514   32    1  124.76996  250.00000   100%   137  524s
 218618 25617 infeasible   32       124.76996  250.00000   100%   137  534s
 222655 26057  155.00000   32    2  124.76996  250.00000   100%   137  545s
 226085 26276  127.11538   33    1  124.76996  250.00000   100%   137  556s
 229280 26493  133.91892   32    2  124.76996  250.00000   100%   137  564s
 231763 27110  200.00000   31    1  124.76996  250.00000   100%   137  575s
 235462 27295  200.00000   31    2  124.76996  250.00000   100%   137  587s
 237939 27696 infeasible   34       124.76996  250.00000   100%   137  598s
 241488 28035 infeasible   33       124.76996  250.00000   100%   137  609s
 243897 28180  250.00000   27    1  124.76996  250.00000   100%   137  621s
 245866 28472  155.00000   31    3  124.76996  250.00000   100%   137  631s
 248724 29106  155.00000   32    2  124.76996  250.00000   100%   137  642s
 252944 29430 infeasible   34       124.76996  250.00000   100%   136  651s
 256438 29737  200.00000   30    1  124.76996  250.00000   100%   136  662s
 259893 29988 infeasible   34       124.76996  250.00000   100%   136  671s
 261700 30410  129.72973   32    2  124.76996  250.00000   100%   137  682s
 264520 30879 infeasible   34       124.76996  250.00000   100%   137  695s
 267859 31162  133.07692   33    1  124.76996  250.00000   100%   137  708s
 270556 31466  133.07692   33    1  124.76996  250.00000   100%   137  721s
 273020 32264  155.00000   33    1  124.76996  250.00000   100%   137  737s
 277466 32699  200.00000   31    1  124.76996  250.00000   100%   137  749s
 279589 33102  155.00000   32    2  124.76996  250.00000   100%   137  761s
 281980 33662 infeasible   34       124.76996  250.00000   100%   137  774s
 285950 34149  133.07692   33    1  124.76996  250.00000   100%   136  787s
 289599 34521 infeasible   33       124.76996  250.00000   100%   136  797s
 292071 34977  155.00000   32    2  124.76996  250.00000   100%   136  810s
 295713 35363  200.00000   32    1  124.76996  250.00000   100%   136  824s
 299513 35825  133.91892   33    1  124.76996  250.00000   100%   136  836s
 302923 36147  155.00000   31    3  124.76996  250.00000   100%   136  848s
 306001 36583  200.00000   32    1  124.76996  250.00000   100%   136  861s
 309685 36673 infeasible   34       124.76996  250.00000   100%   136  874s
 311835 37026  200.00000   31    3  124.76996  250.00000   100%   136  888s
 315082 37368  250.00000   28    2  124.76996  250.00000   100%   136  900s
 317628 37749 infeasible   34       124.76996  250.00000   100%   136  913s
 321371 38053 infeasible   34       124.76996  250.00000   100%   136  925s
 324011 38464 infeasible   33       124.76996  250.00000   100%   136  940s
 328292 38638  200.00000   30    1  124.76996  250.00000   100%   136  953s
 330632 39026  128.20513   32    1  124.76996  250.00000   100%   136  968s
 334852 39312 infeasible   34       124.76996  250.00000   100%   136  980s
 337624 39694 infeasible   33       124.76996  250.00000   100%   136  994s
 341416 40015 infeasible   33       124.76996  250.00000   100%   136 1007s
 344069 40309  200.00000   31    1  124.76996  250.00000   100%   136 1020s
 346561 40580 infeasible   32       124.76996  250.00000   100%   136 1033s
 349464 40902  133.07692   32    2  124.76996  250.00000   100%   136 1048s
 353168 41241  200.00000   31    1  124.76996  250.00000   100%   136 1061s
 355433 41510  133.07692   32    2  124.76996  250.00000   100%   136 1074s
 358874 41902 infeasible   33       124.76996  250.00000   100%   136 1088s
 362138 42305 infeasible   34       124.76996  250.00000   100%   137 1102s
 365451 42599  129.03846   33    1  124.76996  250.00000   100%   137 1117s
 368185 42802  133.07692   32    2  124.76996  250.00000   100%   137 1130s
 370364 43108 infeasible   34       124.76996  250.00000   100%   137 1145s
 373692 43275  250.00000   29    1  124.76996  250.00000   100%   137 1157s
 376163 43597 infeasible   34       124.76996  250.00000   100%   137 1171s
 378583 43792  131.08108   33    1  124.76996  250.00000   100%   137 1185s
 381582 44012  155.00000   33    1  124.76996  250.00000   100%   137 1202s
 384742 44423 infeasible   34       124.76996  250.00000   100%   137 1218s
 387767 44724  133.07692   32    1  124.76996  250.00000   100%   137 1232s
 390744 45100 infeasible   33       124.76996  250.00000   100%   137 1249s
 394282 45319  200.00000   31    2  124.76996  250.00000   100%   137 1264s
 396860 45752  129.03846   32    1  124.76996  250.00000   100%   137 1279s
 400230 45752  155.00000   31    2  124.76996  250.00000   100%   137 1280s
 400943 46041  200.00000   31    1  124.76996  250.00000   100%   137 1292s
 404328 46336  250.00000   29    1  124.76996  250.00000   100%   137 1304s
 407469 46517  131.08108   32    2  124.76996  250.00000   100%   137 1316s
 410128 46866  155.00000   32    2  124.76996  250.00000   100%   137 1330s
 413897 47018  200.00000   31    2  124.76996  250.00000   100%   137 1344s
 415715 47498 infeasible   34       124.76996  250.00000   100%   137 1356s
 419515 47926  250.00000   28    2  124.76996  250.00000   100%   137 1372s
 423233 48241  133.91892   32    2  124.76996  250.00000   100%   137 1387s
 426220 48590  129.03846   33    1  124.76996  250.00000   100%   137 1403s
 429213 48899  250.00000   28    2  124.76996  250.00000   100%   137 1417s
 432372 49208 infeasible   34       124.76996  250.00000   100%   137 1432s
 435005 49649 infeasible   33       124.76996  250.00000   100%   137 1449s
 438316 49649 infeasible   34       124.76996  250.00000   100%   137 1450s
 438512 50022  250.00000   28    1  124.76996  250.00000   100%   137 1466s
 441965 50235  133.91892   32    2  124.76996  250.00000   100%   137 1481s
 444986 50520  250.00000   29    1  124.76996  250.00000   100%   137 1496s
 447877 50873 infeasible   34       124.76996  250.00000   100%   137 1513s
 450710 51215 infeasible   34       124.76996  250.00000   100%   137 1530s
 454480 51539  200.00000   31    1  124.76996  250.00000   100%   137 1544s
 457500 51980 infeasible   34       124.76996  250.00000   100%   137 1558s
 459839 52294  200.00000   31    1  124.76996  250.00000   100%   137 1572s
 463151 52640  155.00000   31    1  124.76996  250.00000   100%   137 1588s
 466173 53004 infeasible   34       124.76996  250.00000   100%   137 1603s
 469189 53522 infeasible   34       124.76996  250.00000   100%   137 1618s
 472403 53994 infeasible   33       124.76996  250.00000   100%   137 1635s
 476091 54186 infeasible   34       124.76996  250.00000   100%   136 1650s
 477751 54620 infeasible   34       124.76996  250.00000   100%   136 1667s
 481461 54890 infeasible   34       124.76996  250.00000   100%   136 1683s
 483435 55248  129.72973   33    1  124.76996  250.00000   100%   136 1698s
 486483 55587  155.00000   31    3  124.76996  250.00000   100%   136 1715s
 489312 55931  200.00000   30    3  124.76996  250.00000   100%   136 1734s
 492023 55931  250.00000   26    3  124.76996  250.00000   100%   136 1735s
 492526 56345  250.00000   28    2  124.76996  250.00000   100%   136 1751s
 495938 56529  133.91892   32    2  124.76996  250.00000   100%   136 1768s
 498982 56792  200.00000   32    1  124.76996  250.00000   100%   136 1783s
 501621 56997  250.00000   26    2  124.76996  250.00000   100%   136 1799s

Cutting planes:
  Implied bound: 5
  MIR: 11
  Flow cover: 15
  RLT: 130
  Relax-and-lift: 5

Explored 504150 nodes (68746450 simplex iterations) in 1799.58 seconds (1703.83 work units)
Thread count was 20 (of 20 available processors)

Solution count 6: 124.77 124.769 124.327 ... 27.5

Time limit reached
Best objective 1.247699566860e+02, best bound 2.500000000000e+02, gap 100.3687%

User-callback calls 1258701, time in user-callback 0.57 sec
